DATASET = "thpack7";
INSTANCE = "088";

WIDTH = 233;
HEIGHT = 220;
LENGTH = 587;

NO_OF_SHAPES = 20;
size = [|
  100,60,40 |
  89,67,34 |
  92,80,38 |
  90,81,24 |
  84,52,38 |
  77,54,46 |
  90,49,33 |
  78,45,27 |
  76,57,28 |
  102,38,27 |
  55,45,39 |
  115,78,29 |
  98,58,53 |
  75,64,44 |
  61,57,20 |
  94,92,78 |
  114,58,42 |
  98,67,27 |
  85,79,45 |
  111,49,22 |
|];

verticality = [|
  0,1,1 |
  0,1,1 |
  0,0,1 |
  0,0,1 |
  0,1,1 |
  1,1,1 |
  0,1,1 |
  0,1,1 |
  0,0,1 |
  0,1,1 |
  1,1,1 |
  0,0,1 |
  1,1,1 |
  1,1,1 |
  0,0,1 |
  1,1,1 |
  0,1,1 |
  0,0,1 |
  1,1,1 |
  0,0,1 |
|];

box_count = [
  5,
  4,
  7,
  12,
  8,
  6,
  5,
  9,
  11,
  4,
  7,
  4,
  6,
  11,
  5,
  6,
  7,
  7,
  12,
  6,
];
